
(set-logic ALL) 

(declare-datatype MyList ((Nil) (Cons (head Real) (tail MyList)) )) 
(declare-fun l0 () MyList) 
(declare-fun l1 () MyList) 
(declare-fun l2 () MyList) 
(declare-fun l3 () MyList) 
(declare-fun i0 () Real) 
(declare-fun i1 () Real) 
(assert (is-Cons Nil) )
(assert (and (= l1 l2) (= l1 Nil) (= l2 l1) (= l0 Nil)) )
(assert (and (= l3 Nil) (= l3 Nil)) )
(assert (not (is-Cons Nil)) )
(assert (= l1 Nil) )
(assert (or (is-Cons Nil) (is-Nil Nil)) )
(assert (is-Nil Nil) )
(assert (is-Nil l3) )
(check-sat)
